\* Toy_Manufacturing *\
Maximize
Profit;_to_be_maximized: 25 Toy_1_units + 20 Toy_2_units
Subject To
Required_units___constraint: 20 Toy_1_units + 12 Toy_2_units <= 2000
Time_required___constraint: 5 Toy_1_units + 5 Toy_2_units <= 540
Bounds
 0 <= Toy_1_units
 0 <= Toy_2_units
Generals
Toy_1_units
Toy_2_units
End
